\ENCODING=ISO-8859-1
\Problem name: ilog.cplex

Maximize
 obj: 649 x(0)#0 + 918 x(1)#1 + 1025 x(2)#2 + 687 x(3)#3 + 680 x(4)#4
      + 625 x(5)#5 + 585 x(6)#6 + 589 x(7)#7 + 717 x(8)#8 + 883 x(9)#9
      + 603 x(10)#10 + 1009 x(11)#11 + 615 x(12)#12 + 824 x(13)#13
      + 661 x(14)#14 + 1018 x(15)#15 + 602 x(16)#16 + 643 x(17)#17
      + 775 x(18)#18 + 967 x(19)#19 + 786 x(20)#20 + 743 x(21)#21
      + 872 x(22)#22 + 493 x(23)#23 + 885 x(24)#24 + 873 x(25)#25
      + 552 x(26)#26 + 1152 x(27)#27 + 379 x(28)#28 + 720 x(29)#29
      + 589 x(30)#30 + 417 x(31)#31 + 664 x(32)#32 + 1085 x(33)#33
      + 827 x(34)#34 + 978 x(35)#35 + 596 x(36)#36 + 978 x(37)#37
      + 609 x(38)#38 + 743 x(39)#39 + 537 x(40)#40 + 1260 x(41)#41
      + 1141 x(42)#42 + 419 x(43)#43 + 570 x(44)#44 + 972 x(45)#45
      + 1077 x(46)#46 + 620 x(47)#47 + 418 x(48)#48 + 585 x(49)#49
      + 746 x(50)#50 + 921 x(51)#51 + 1116 x(52)#52 + 475 x(53)#53
      + 409 x(54)#54 + 874 x(55)#55 + 643 x(56)#56 + 726 x(57)#57
      + 776 x(58)#58 + 496 x(59)#59 + 516 x(60)#60 + 713 x(61)#61
      + 666 x(62)#62 + 542 x(63)#63 + 493 x(64)#64 + 1066 x(65)#65
      + 716 x(66)#66 + 795 x(67)#67 + 714 x(68)#68 + 648 x(69)#69
      + 1137 x(70)#70 + 692 x(71)#71 + 773 x(72)#72 + 850 x(73)#73
      + 895 x(74)#74 + 1033 x(75)#75 + 935 x(76)#76 + 1054 x(77)#77
      + 728 x(78)#78 + 527 x(79)#79 + 1105 x(80)#80 + 690 x(81)#81
      + 423 x(82)#82 + 529 x(83)#83 + 628 x(84)#84 + 535 x(85)#85
      + 731 x(86)#86 + 1014 x(87)#87 + 802 x(88)#88 + 729 x(89)#89
      + 524 x(90)#90 + 659 x(91)#91 + 785 x(92)#92 + 1014 x(93)#93
      + 1068 x(94)#94 + 753 x(95)#95 + 776 x(96)#96 + 600 x(97)#97
      + 838 x(98)#98 + 721 x(99)#99 + 828 x(100)#100 + 685 x(101)#101
      + 485 x(102)#102 + 545 x(103)#103 + 636 x(104)#104 + 673 x(105)#105
      + 585 x(106)#106 + 658 x(107)#107 + 779 x(108)#108 + 465 x(109)#109
      + 995 x(110)#110 + 707 x(111)#111 + 700 x(112)#112 + 674 x(113)#113
      + 817 x(114)#114 + 934 x(115)#115 + 922 x(116)#116 + 727 x(117)#117
      + 910 x(118)#118 + 748 x(119)#119 + 705 x(120)#120 + 920 x(121)#121
      + 693 x(122)#122 + 473 x(123)#123 + 775 x(124)#124 + 790 x(125)#125
      + 1084 x(126)#126 + 884 x(127)#127 + 883 x(128)#128 + 739 x(129)#129
      + 738 x(130)#130 + 960 x(131)#131 + 734 x(132)#132 + 1057 x(133)#133
      + 655 x(134)#134 + 1187 x(135)#135 + 816 x(136)#136 + 592 x(137)#137
      + 930 x(138)#138 + 841 x(139)#139 + 817 x(140)#140 + 613 x(141)#141
      + 636 x(142)#142 + 923 x(143)#143 + 481 x(144)#144 + 718 x(145)#145
      + 833 x(146)#146 + 696 x(147)#147 + 503 x(148)#148 + 668 x(149)#149
      + 815 x(150)#150 + 669 x(151)#151 + 908 x(152)#152 + 943 x(153)#153
      + 940 x(154)#154 + 462 x(155)#155 + 929 x(156)#156 + 625 x(157)#157
      + 997 x(158)#158 + 721 x(159)#159 + 575 x(160)#160 + 976 x(161)#161
      + 400 x(162)#162 + 1016 x(163)#163 + 705 x(164)#164 + 491 x(165)#165
      + 666 x(166)#166 + 835 x(167)#167 + 668 x(168)#168 + 784 x(169)#169
      + 725 x(170)#170 + 339 x(171)#171 + 875 x(172)#172 + 768 x(173)#173
      + 1085 x(174)#174 + 957 x(175)#175 + 869 x(176)#176 + 936 x(177)#177
      + 677 x(178)#178 + 853 x(179)#179 + 545 x(180)#180 + 768 x(181)#181
      + 806 x(182)#182 + 1094 x(183)#183 + 829 x(184)#184 + 453 x(185)#185
      + 458 x(186)#186 + 1019 x(187)#187 + 958 x(188)#188 + 665 x(189)#189
      + 816 x(190)#190 + 751 x(191)#191 + 888 x(192)#192 + 600 x(193)#193
      + 1034 x(194)#194 + 434 x(195)#195 + 598 x(196)#196 + 563 x(197)#197
      + 825 x(198)#198 + 1034 x(199)#199 + 633 x(200)#200 + 936 x(201)#201
      + 614 x(202)#202 + 654 x(203)#203 + 931 x(204)#204 + 996 x(205)#205
      + 837 x(206)#206 + 618 x(207)#207 + 703 x(208)#208 + 742 x(209)#209
      + 951 x(210)#210 + 781 x(211)#211 + 487 x(212)#212 + 695 x(213)#213
      + 632 x(214)#214 + 705 x(215)#215 + 286 x(216)#216 + 702 x(217)#217
      + 966 x(218)#218 + 896 x(219)#219 + 971 x(220)#220 + 401 x(221)#221
      + 562 x(222)#222 + 510 x(223)#223 + 714 x(224)#224 + 953 x(225)#225
      + 645 x(226)#226 + 843 x(227)#227 + 601 x(228)#228 + 882 x(229)#229
      + 1034 x(230)#230 + 692 x(231)#231 + 803 x(232)#232 + 425 x(233)#233
      + 1149 x(234)#234 + 1034 x(235)#235 + 340 x(236)#236 + 791 x(237)#237
      + 532 x(238)#238 + 877 x(239)#239 + 1081 x(240)#240 + 706 x(241)#241
      + 502 x(242)#242 + 737 x(243)#243 + 874 x(244)#244 + 1012 x(245)#245
      + 763 x(246)#246 + 821 x(247)#247 + 661 x(248)#248 + 809 x(249)#249
Subject To
 c1: 870 x(0)#0 + 316 x(1)#1 + 651 x(2)#2 + 426 x(3)#3 + 773 x(4)#4
     + 493 x(5)#5 + 300 x(6)#6 + 121 x(7)#7 + 822 x(8)#8 + 242 x(9)#9
     + 98 x(10)#10 + 677 x(11)#11 + 978 x(12)#12 + 722 x(13)#13 + 643 x(14)#14
     + 943 x(15)#15 + 573 x(16)#16 + 383 x(17)#17 + 436 x(18)#18 + 626 x(19)#19
     + 964 x(20)#20 + 813 x(21)#21 + 774 x(22)#22 + 20 x(23)#23 + 243 x(24)#24
     + 16 x(25)#25 + 209 x(26)#26 + 859 x(27)#27 + 52 x(28)#28 + 891 x(29)#29
     + 125 x(30)#30 + 296 x(31)#31 + 6 x(32)#32 + 624 x(33)#33 + 893 x(34)#34
     + 645 x(35)#35 + 451 x(36)#36 + 787 x(37)#37 + 722 x(38)#38 + 421 x(39)#39
     + 471 x(40)#40 + 756 x(41)#41 + 792 x(42)#42 + 576 x(43)#43 + 338 x(44)#44
     + 248 x(45)#45 + 67 x(46)#46 + 963 x(47)#47 + 572 x(48)#48 + 47 x(49)#49
     + 528 x(50)#50 + 881 x(51)#51 + 659 x(52)#52 + 356 x(53)#53 + 698 x(54)#54
     + 428 x(55)#55 + 918 x(56)#56 + 119 x(57)#57 + 275 x(58)#58 + 249 x(59)#59
     + 159 x(60)#60 + 465 x(61)#61 + 111 x(62)#62 + 439 x(63)#63 + 723 x(64)#64
     + 780 x(65)#65 + 295 x(66)#66 + 717 x(67)#67 + 992 x(68)#68 + 360 x(69)#69
     + 891 x(70)#70 + 407 x(71)#71 + 267 x(72)#72 + 133 x(73)#73 + 980 x(74)#74
     + 695 x(75)#75 + 719 x(76)#76 + 452 x(77)#77 + 444 x(78)#78 + 50 x(79)#79
     + 636 x(80)#80 + 581 x(81)#81 + 726 x(82)#82 + 265 x(83)#83 + 493 x(84)#84
     + 598 x(85)#85 + 941 x(86)#86 + 965 x(87)#87 + 224 x(88)#88 + 576 x(89)#89
     + 950 x(90)#90 + 255 x(91)#91 + 243 x(92)#92 + 873 x(93)#93 + 85 x(94)#94
     + 860 x(95)#95 + 44 x(96)#96 + 672 x(97)#97 + 377 x(98)#98 + 268 x(99)#99
     + 293 x(100)#100 + 269 x(101)#101 + 398 x(102)#102 + 709 x(103)#103
     + 808 x(104)#104 + 477 x(105)#105 + 629 x(106)#106 + 937 x(107)#107
     + 649 x(108)#108 + 206 x(109)#109 + 566 x(110)#110 + 412 x(111)#111
     + 748 x(112)#112 + 414 x(113)#113 + 953 x(114)#114 + 468 x(115)#115
     + 434 x(116)#116 + 876 x(117)#117 + 767 x(118)#118 + 830 x(119)#119
     + 104 x(120)#120 + 419 x(121)#121 + 220 x(122)#122 + 157 x(123)#123
     + 985 x(124)#124 + 490 x(125)#125 + 592 x(126)#126 + 793 x(127)#127
     + 913 x(128)#128 + 741 x(129)#129 + 458 x(130)#130 + 816 x(131)#131
     + 857 x(132)#132 + 433 x(133)#133 + 876 x(134)#134 + 632 x(135)#135
     + 616 x(136)#136 + 746 x(137)#137 + 668 x(138)#138 + 800 x(139)#139
     + 496 x(140)#140 + 621 x(141)#141 + 264 x(142)#142 + 74 x(143)#143
     + 348 x(144)#144 + 996 x(145)#145 + 391 x(146)#146 + 304 x(147)#147
     + 755 x(148)#148 + 997 x(149)#149 + 551 x(150)#150 + 737 x(151)#151
     + 189 x(152)#152 + 697 x(153)#153 + 26 x(154)#154 + 666 x(155)#155
     + 136 x(156)#156 + 861 x(157)#157 + 824 x(158)#158 + 445 x(159)#159
     + 266 x(160)#160 + 442 x(161)#161 + 587 x(162)#162 + 939 x(163)#163
     + 491 x(164)#164 + 709 x(165)#165 + 676 x(166)#166 + 992 x(167)#167
     + 434 x(168)#168 + 846 x(169)#169 + 593 x(170)#170 + 371 x(171)#171
     + 164 x(172)#172 + 441 x(173)#173 + 787 x(174)#174 + 194 x(175)#175
     + 564 x(176)#176 + 327 x(177)#177 + 953 x(178)#178 + 647 x(179)#179
     + 30 x(180)#180 + 633 x(181)#181 + 782 x(182)#182 + 604 x(183)#183
     + 570 x(184)#184 + 241 x(185)#185 + 579 x(186)#186 + 248 x(187)#187
     + 56 x(188)#188 + 697 x(189)#189 + 620 x(190)#190 + 767 x(191)#191
     + 655 x(192)#192 + 320 x(193)#193 + 844 x(194)#194 + 107 x(195)#195
     + 78 x(196)#196 + 656 x(197)#197 + 496 x(198)#198 + 813 x(199)#199
     + 926 x(200)#200 + 305 x(201)#201 + 91 x(202)#202 + 561 x(203)#203
     + 398 x(204)#204 + 811 x(205)#205 + 567 x(206)#206 + 749 x(207)#207
     + 213 x(208)#208 + 190 x(209)#209 + 118 x(210)#210 + 495 x(211)#211
     + 677 x(212)#212 + 161 x(213)#213 + 364 x(214)#214 + 561 x(215)#215
     + 20 x(216)#216 + 972 x(217)#217 + 885 x(218)#218 + 566 x(219)#219
     + 105 x(220)#220 + 111 x(221)#221 + 166 x(222)#222 + 689 x(223)#223
     + 161 x(224)#224 + 166 x(225)#225 + 268 x(226)#226 + 850 x(227)#227
     + 31 x(228)#228 + 699 x(229)#229 + 910 x(230)#230 + 95 x(231)#231
     + 213 x(232)#232 + 130 x(233)#233 + 419 x(234)#234 + 716 x(235)#235
     + 13 x(236)#236 + 810 x(237)#237 + 75 x(238)#238 + 851 x(239)#239
     + 798 x(240)#240 + 153 x(241)#241 + 560 x(242)#242 + 209 x(243)#243
     + 951 x(244)#244 + 589 x(245)#245 + 312 x(246)#246 + 478 x(247)#247
     + 236 x(248)#248 + 289 x(249)#249 <= 64498
 c2: 145 x(0)#0 + 803 x(1)#1 + 788 x(2)#2 + 382 x(3)#3 + 291 x(4)#4
     + 577 x(5)#5 + 246 x(6)#6 + 325 x(7)#7 + 700 x(8)#8 + 822 x(9)#9
     + 679 x(10)#10 + 429 x(11)#11 + 607 x(12)#12 + 350 x(13)#13 + 637 x(14)#14
     + 649 x(15)#15 + 793 x(16)#16 + 930 x(17)#17 + 129 x(18)#18 + 687 x(19)#19
     + 736 x(20)#20 + 659 x(21)#21 + 278 x(22)#22 + 569 x(23)#23 + 748 x(24)#24
     + 974 x(25)#25 + 644 x(26)#26 + 859 x(27)#27 + 291 x(28)#28 + 205 x(29)#29
     + 907 x(30)#30 + 145 x(31)#31 + 127 x(32)#32 + 808 x(33)#33 + 375 x(34)#34
     + 958 x(35)#35 + 246 x(36)#36 + 80 x(37)#37 + 600 x(38)#38 + 156 x(39)#39
     + 244 x(40)#40 + 272 x(41)#41 + 815 x(42)#42 + 375 x(43)#43 + 458 x(44)#44
     + 994 x(45)#45 + 696 x(46)#46 + 743 x(47)#47 + 228 x(48)#48 + 733 x(49)#49
     + 706 x(50)#50 + 857 x(51)#51 + 86 x(52)#52 + 543 x(53)#53 + 71 x(54)#54
     + 109 x(55)#55 + 653 x(56)#56 + 868 x(57)#57 + 388 x(58)#58 + 86 x(59)#59
     + 77 x(60)#60 + 564 x(61)#61 + 640 x(62)#62 + 579 x(63)#63 + 326 x(64)#64
     + 718 x(65)#65 + 748 x(66)#66 + 688 x(67)#67 + 85 x(68)#68 + 519 x(69)#69
     + 599 x(70)#70 + 107 x(71)#71 + 963 x(72)#72 + 808 x(73)#73 + 606 x(74)#74
     + 464 x(75)#75 + 448 x(76)#76 + 258 x(77)#77 + 341 x(78)#78 + 772 x(79)#79
     + 470 x(80)#80 + 707 x(81)#81 + 8 x(82)#82 + 601 x(83)#83 + 309 x(84)#84
     + 78 x(85)#85 + 281 x(86)#86 + 926 x(87)#87 + 737 x(88)#88 + 28 x(89)#89
     + 351 x(90)#90 + 243 x(91)#91 + 94 x(92)#92 + 356 x(93)#93 + 731 x(94)#94
     + 112 x(95)#95 + 735 x(96)#96 + 99 x(97)#97 + 322 x(98)#98 + 123 x(99)#99
     + 585 x(100)#100 + 260 x(101)#101 + 73 x(102)#102 + 107 x(103)#103
     + 258 x(104)#104 + 398 x(105)#105 + 60 x(106)#106 + 560 x(107)#107
     + 673 x(108)#108 + 280 x(109)#109 + 980 x(110)#110 + 182 x(111)#111
     + 292 x(112)#112 + 797 x(113)#113 + 140 x(114)#114 + 670 x(115)#115
     + 164 x(116)#116 + 816 x(117)#117 + 698 x(118)#118 + 795 x(119)#119
     + 729 x(120)#120 + 718 x(121)#121 + 78 x(122)#122 + 548 x(123)#123
     + 645 x(124)#124 + 125 x(125)#125 + 932 x(126)#126 + 583 x(127)#127
     + 609 x(128)#128 + 40 x(129)#129 + 353 x(130)#130 + 680 x(131)#131
     + 97 x(132)#132 + 576 x(133)#133 + 775 x(134)#134 + 940 x(135)#135
     + 953 x(136)#136 + 66 x(137)#137 + 953 x(138)#138 + 392 x(139)#139
     + 644 x(140)#140 + 939 x(141)#141 + 477 x(142)#142 + 976 x(143)#143
     + 433 x(144)#144 + 75 x(145)#145 + 509 x(146)#146 + 216 x(147)#147
     + 132 x(148)#148 + 820 x(149)#149 + 804 x(150)#150 + 204 x(151)#151
     + 621 x(152)#152 + 794 x(153)#153 + 648 x(154)#154 + 81 x(155)#155
     + 915 x(156)#156 + 856 x(157)#157 + 451 x(158)#158 + 616 x(159)#159
     + 6 x(160)#160 + 294 x(161)#161 + 402 x(162)#162 + 710 x(163)#163
     + 623 x(164)#164 + 251 x(165)#165 + 682 x(166)#166 + 100 x(167)#167
     + 672 x(168)#168 + 268 x(169)#169 + 669 x(170)#170 + 159 x(171)#171
     + 218 x(172)#172 + 394 x(173)#173 + 849 x(174)#174 + 399 x(175)#175
     + 195 x(176)#176 + 438 x(177)#177 + 595 x(178)#178 + 792 x(179)#179
     + 732 x(180)#180 + 596 x(181)#181 + 301 x(182)#182 + 962 x(183)#183
     + 436 x(184)#184 + 472 x(185)#185 + 213 x(186)#186 + 857 x(187)#187
     + 967 x(188)#188 + 275 x(189)#189 + 417 x(190)#190 + 620 x(191)#191
     + 940 x(192)#192 + 435 x(193)#193 + 635 x(194)#194 + 502 x(195)#195
     + 808 x(196)#196 + 277 x(197)#197 + 457 x(198)#198 + 710 x(199)#199
     + 302 x(200)#200 + 980 x(201)#201 + 129 x(202)#202 + 462 x(203)#203
     + 667 x(204)#204 + 943 x(205)#205 + 103 x(206)#206 + 253 x(207)#207
     + 611 x(208)#208 + 372 x(209)#209 + 950 x(210)#210 + 117 x(211)#211
     + 206 x(212)#212 + 622 x(213)#213 + 47 x(214)#214 + 661 x(215)#215
     + 159 x(216)#216 + 791 x(217)#217 + 765 x(218)#218 + 524 x(219)#219
     + 514 x(220)#220 + 87 x(221)#221 + 181 x(222)#222 + 18 x(223)#223
     + 459 x(224)#224 + 632 x(225)#225 + 758 x(226)#226 + 207 x(227)#227
     + 647 x(228)#228 + 926 x(229)#229 + 452 x(230)#230 + 599 x(231)#231
     + 460 x(232)#232 + 306 x(233)#233 + 860 x(234)#234 + 764 x(235)#235
     + 143 x(236)#236 + 928 x(237)#237 + 166 x(238)#238 + 122 x(239)#239
     + 208 x(240)#240 + 494 x(241)#241 + 198 x(242)#242 + 848 x(243)#243
     + 368 x(244)#244 + 660 x(245)#245 + 658 x(246)#246 + 444 x(247)#247
     + 38 x(248)#248 + 689 x(249)#249 <= 61749
 c3: 832 x(0)#0 + 435 x(1)#1 + 148 x(2)#2 + 740 x(3)#3 + 247 x(4)#4 + 91 x(5)#5
     + 341 x(6)#6 + 413 x(7)#7 + 546 x(8)#8 + 681 x(9)#9 + 546 x(10)#10
     + 374 x(11)#11 + 707 x(12)#12 + 689 x(13)#13 + 561 x(14)#14 + 245 x(15)#15
     + 462 x(16)#16 + 769 x(17)#17 + 909 x(18)#18 + 903 x(19)#19 + 193 x(20)#20
     + 677 x(21)#21 + 548 x(22)#22 + 780 x(23)#23 + 36 x(24)#24 + 504 x(25)#25
     + 450 x(26)#26 + 604 x(27)#27 + 364 x(28)#28 + 7 x(29)#29 + 120 x(30)#30
     + 157 x(31)#31 + 783 x(32)#32 + 342 x(33)#33 + 573 x(34)#34 + 889 x(35)#35
     + 879 x(36)#36 + 830 x(37)#37 + 392 x(38)#38 + 666 x(39)#39 + 847 x(40)#40
     + 949 x(41)#41 + 794 x(42)#42 + 541 x(43)#43 + 487 x(44)#44 + 916 x(45)#45
     + 983 x(46)#46 + 319 x(47)#47 + 303 x(48)#48 + 278 x(49)#49 + 110 x(50)#50
     + 626 x(51)#51 + 717 x(52)#52 + 302 x(53)#53 + 453 x(54)#54 + 262 x(55)#55
     + 462 x(56)#56 + 78 x(57)#57 + 262 x(58)#58 + 168 x(59)#59 + 158 x(60)#60
     + 759 x(61)#61 + 415 x(62)#62 + 314 x(63)#63 + 57 x(64)#64 + 395 x(65)#65
     + 372 x(66)#66 + 168 x(67)#67 + 493 x(68)#68 + 316 x(69)#69 + 685 x(70)#70
     + 639 x(71)#71 + 349 x(72)#72 + 898 x(73)#73 + 791 x(74)#74 + 627 x(75)#75
     + 206 x(76)#76 + 767 x(77)#77 + 667 x(78)#78 + 247 x(79)#79 + 359 x(80)#80
     + 563 x(81)#81 + 73 x(82)#82 + 602 x(83)#83 + 35 x(84)#84 + 238 x(85)#85
     + 707 x(86)#86 + 99 x(87)#87 + 86 x(88)#88 + 193 x(89)#89 + 330 x(90)#90
     + 734 x(91)#91 + 953 x(92)#92 + 499 x(93)#93 + 728 x(94)#94 + 410 x(95)#95
     + 166 x(96)#96 + 684 x(97)#97 + 314 x(98)#98 + 184 x(99)#99
     + 426 x(100)#100 + 412 x(101)#101 + 787 x(102)#102 + 403 x(103)#103
     + 45 x(104)#104 + 657 x(105)#105 + 352 x(106)#106 + 504 x(107)#107
     + 274 x(108)#108 + 514 x(109)#109 + 984 x(110)#110 + 500 x(111)#111
     + 215 x(112)#112 + 527 x(113)#113 + 936 x(114)#114 + 544 x(115)#115
     + 596 x(116)#116 + 204 x(117)#117 + 664 x(118)#118 + 813 x(119)#119
     + 51 x(120)#120 + 873 x(121)#121 + 990 x(122)#122 + 431 x(123)#123
     + 348 x(124)#124 + 740 x(125)#125 + 598 x(126)#126 + 212 x(127)#127
     + 926 x(128)#128 + 929 x(129)#129 + 742 x(130)#130 + 289 x(131)#131
     + 772 x(132)#132 + 766 x(133)#133 + 531 x(134)#134 + 160 x(135)#135
     + 997 x(136)#136 + 449 x(137)#137 + 406 x(138)#138 + 787 x(139)#139
     + 250 x(140)#140 + 214 x(141)#141 + 636 x(142)#142 + 216 x(143)#143
     + 685 x(144)#144 + 474 x(145)#145 + 785 x(146)#146 + 674 x(147)#147
     + 839 x(148)#148 + 9 x(149)#149 + 634 x(150)#150 + 283 x(151)#151
     + 806 x(152)#152 + 615 x(153)#153 + 996 x(154)#154 + 363 x(155)#155
     + 399 x(156)#156 + 81 x(157)#157 + 823 x(158)#158 + 687 x(159)#159
     + 761 x(160)#160 + 553 x(161)#161 + 418 x(162)#162 + 274 x(163)#163
     + 781 x(164)#164 + 275 x(165)#165 + 245 x(166)#166 + 933 x(167)#167
     + 343 x(168)#168 + 435 x(169)#169 + 761 x(170)#170 + 70 x(171)#171
     + 918 x(172)#172 + 706 x(173)#173 + 56 x(174)#174 + 353 x(175)#175
     + 731 x(176)#176 + 645 x(177)#177 + 52 x(178)#178 + 657 x(179)#179
     + 588 x(180)#180 + 476 x(181)#181 + 961 x(182)#182 + 445 x(183)#183
     + 941 x(184)#184 + 243 x(185)#185 + 210 x(186)#186 + 610 x(187)#187
     + 618 x(188)#188 + 138 x(189)#189 + 700 x(190)#190 + 324 x(191)#191
     + 632 x(192)#192 + 381 x(193)#193 + 212 x(194)#194 + 213 x(195)#195
     + 156 x(196)#196 + 458 x(197)#197 + 521 x(198)#198 + 873 x(199)#199
     + 522 x(200)#200 + 478 x(201)#201 + 105 x(202)#202 + 151 x(203)#203
     + 519 x(204)#204 + 383 x(205)#205 + 404 x(206)#206 + 1000 x(207)#207
     + 80 x(208)#208 + 215 x(209)#209 + 51 x(210)#210 + 901 x(211)#211
     + 427 x(212)#212 + 214 x(213)#213 + 255 x(214)#214 + 898 x(215)#215
     + 50 x(216)#216 + 588 x(217)#217 + 681 x(218)#218 + 228 x(219)#219
     + 670 x(220)#220 + 312 x(221)#221 + 324 x(222)#222 + 508 x(223)#223
     + 801 x(224)#224 + 635 x(225)#225 + 644 x(226)#226 + 616 x(227)#227
     + 58 x(228)#228 + 548 x(229)#229 + 446 x(230)#230 + 726 x(231)#231
     + 582 x(232)#232 + 539 x(233)#233 + 773 x(234)#234 + 344 x(235)#235
     + 443 x(236)#236 + 956 x(237)#237 + 407 x(238)#238 + 838 x(239)#239
     + 837 x(240)#240 + 225 x(241)#241 + 740 x(242)#242 + 558 x(243)#243
     + 324 x(244)#244 + 150 x(245)#245 + 850 x(246)#246 + 532 x(247)#247
     + 563 x(248)#248 + 578 x(249)#249 <= 62369
 c4: 32 x(0)#0 + 481 x(1)#1 + 978 x(2)#2 + 786 x(3)#3 + 753 x(4)#4 + 981 x(5)#5
     + 910 x(6)#6 + 942 x(7)#7 + 348 x(8)#8 + 205 x(9)#9 + 565 x(10)#10
     + 96 x(11)#11 + 677 x(12)#12 + 826 x(13)#13 + 340 x(14)#14 + 513 x(15)#15
     + 981 x(16)#16 + 167 x(17)#17 + 76 x(18)#18 + 82 x(19)#19 + 523 x(20)#20
     + 369 x(21)#21 + 640 x(22)#22 + 418 x(23)#23 + 959 x(24)#24 + 452 x(25)#25
     + 240 x(26)#26 + 460 x(27)#27 + 882 x(28)#28 + 129 x(29)#29 + 987 x(30)#30
     + 78 x(31)#31 + 536 x(32)#32 + 913 x(33)#33 + 117 x(34)#34 + 65 x(35)#35
     + 72 x(36)#36 + 544 x(37)#37 + 134 x(38)#38 + 164 x(39)#39 + 370 x(40)#40
     + 978 x(41)#41 + 215 x(42)#42 + 207 x(43)#43 + 525 x(44)#44 + 871 x(45)#45
     + 754 x(46)#46 + 768 x(47)#47 + 59 x(48)#48 + 118 x(49)#49 + 953 x(50)#50
     + 576 x(51)#51 + 933 x(52)#52 + 994 x(53)#53 + 203 x(54)#54 + 938 x(55)#55
     + 430 x(56)#56 + 455 x(57)#57 + 53 x(58)#58 + 873 x(59)#59 + 217 x(60)#60
     + 298 x(61)#61 + 663 x(62)#62 + 119 x(63)#63 + 113 x(64)#64 + 740 x(65)#65
     + 354 x(66)#66 + 436 x(67)#67 + 636 x(68)#68 + 125 x(69)#69 + 953 x(70)#70
     + 725 x(71)#71 + 871 x(72)#72 + 376 x(73)#73 + 767 x(74)#74
     + 1000 x(75)#75 + 408 x(76)#76 + 915 x(77)#77 + 18 x(78)#78 + x(79)#79
     + 749 x(80)#80 + 667 x(81)#81 + 834 x(82)#82 + 198 x(83)#83 + 392 x(84)#84
     + 169 x(85)#85 + 541 x(86)#86 + 330 x(87)#87 + 519 x(88)#88 + 342 x(89)#89
     + 101 x(90)#90 + 436 x(91)#91 + 213 x(92)#92 + 544 x(93)#93 + 472 x(94)#94
     + 133 x(95)#95 + 562 x(96)#96 + 922 x(97)#97 + 174 x(98)#98 + 436 x(99)#99
     + 523 x(100)#100 + 12 x(101)#101 + 456 x(102)#102 + 290 x(103)#103
     + 890 x(104)#104 + 584 x(105)#105 + 365 x(106)#106 + 380 x(107)#107
     + 164 x(108)#108 + 839 x(109)#109 + 467 x(110)#110 + 379 x(111)#111
     + 676 x(112)#112 + 31 x(113)#113 + 167 x(114)#114 + 29 x(115)#115
     + 610 x(116)#116 + 478 x(117)#117 + 278 x(118)#118 + 74 x(119)#119
     + 707 x(120)#120 + 171 x(121)#121 + 407 x(122)#122 + 446 x(123)#123
     + 263 x(124)#124 + 657 x(125)#125 + 135 x(126)#126 + 489 x(127)#127
     + 797 x(128)#128 + 162 x(129)#129 + 986 x(130)#130 + 688 x(131)#131
     + 846 x(132)#132 + 853 x(133)#133 + 265 x(134)#134 + 922 x(135)#135
     + 116 x(136)#136 + 224 x(137)#137 + 681 x(138)#138 + 338 x(139)#139
     + 737 x(140)#140 + 420 x(141)#141 + 973 x(142)#142 + 703 x(143)#143
     + 39 x(144)#144 + 98 x(145)#145 + 625 x(146)#146 + 700 x(147)#147
     + 564 x(148)#148 + 865 x(149)#149 + 342 x(150)#150 + 48 x(151)#151
     + 585 x(152)#152 + 973 x(153)#153 + 452 x(154)#154 + 750 x(155)#155
     + 790 x(156)#156 + 326 x(157)#157 + 442 x(158)#158 + 955 x(159)#159
     + 376 x(160)#160 + 606 x(161)#161 + 191 x(162)#162 + 833 x(163)#163
     + 981 x(164)#164 + 352 x(165)#165 + 614 x(166)#166 + 317 x(167)#167
     + 349 x(168)#168 + 201 x(169)#169 + 235 x(170)#170 + 346 x(171)#171
     + 729 x(172)#172 + 488 x(173)#173 + 713 x(174)#174 + 708 x(175)#175
     + 992 x(176)#176 + 804 x(177)#177 + 495 x(178)#178 + 396 x(179)#179
     + 261 x(180)#180 + 866 x(181)#181 + 965 x(182)#182 + 71 x(183)#183
     + 698 x(184)#184 + 451 x(185)#185 + 170 x(186)#186 + 517 x(187)#187
     + 411 x(188)#188 + 831 x(189)#189 + 491 x(190)#190 + 466 x(191)#191
     + 507 x(192)#192 + 909 x(193)#193 + 804 x(194)#194 + 526 x(195)#195
     + 799 x(196)#196 + 109 x(197)#197 + 270 x(198)#198 + 876 x(199)#199
     + 36 x(200)#200 + 859 x(201)#201 + 844 x(202)#202 + 429 x(203)#203
     + 74 x(204)#204 + 4 x(205)#205 + 237 x(206)#206 + 299 x(207)#207
     + 797 x(208)#208 + 526 x(209)#209 + 593 x(210)#210 + 780 x(211)#211
     + 206 x(212)#212 + 609 x(213)#213 + 220 x(214)#214 + 588 x(215)#215
     + 398 x(216)#216 + 359 x(217)#217 + 883 x(218)#218 + 626 x(219)#219
     + 310 x(220)#220 + 45 x(221)#221 + 218 x(222)#222 + 358 x(223)#223
     + 743 x(224)#224 + 934 x(225)#225 + 369 x(226)#226 + 279 x(227)#227
     + 669 x(228)#228 + 316 x(229)#229 + 841 x(230)#230 + 863 x(231)#231
     + 507 x(232)#232 + 286 x(233)#233 + 939 x(234)#234 + 930 x(235)#235
     + 668 x(236)#236 + 520 x(237)#237 + 99 x(238)#238 + 243 x(239)#239
     + 830 x(240)#240 + 613 x(241)#241 + 655 x(242)#242 + 373 x(243)#243
     + 399 x(244)#244 + 582 x(245)#245 + 18 x(246)#246 + 986 x(247)#247
     + 221 x(248)#248 + 119 x(249)#249 <= 62210
 c5: 438 x(0)#0 + 349 x(1)#1 + 631 x(2)#2 + 198 x(3)#3 + 629 x(4)#4
     + 904 x(5)#5 + 820 x(6)#6 + 523 x(7)#7 + 814 x(8)#8 + 317 x(9)#9
     + 223 x(10)#10 + 989 x(11)#11 + 8 x(12)#12 + 780 x(13)#13 + 199 x(14)#14
     + 546 x(15)#15 + 176 x(16)#16 + 210 x(17)#17 + 441 x(18)#18 + 948 x(19)#19
     + 226 x(20)#20 + 548 x(21)#21 + 117 x(22)#22 + 164 x(23)#23 + 337 x(24)#24
     + 174 x(25)#25 + 104 x(26)#26 + 864 x(27)#27 + 271 x(28)#28 + 46 x(29)#29
     + 582 x(30)#30 + 901 x(31)#31 + 67 x(32)#32 + 903 x(33)#33 + 317 x(34)#34
     + 882 x(35)#35 + 37 x(36)#36 + 543 x(37)#37 + 50 x(38)#38 + 258 x(39)#39
     + 59 x(40)#40 + 951 x(41)#41 + 892 x(42)#42 + 39 x(43)#43 + 985 x(44)#44
     + 462 x(45)#45 + 507 x(46)#46 + 143 x(47)#47 + 435 x(48)#48 + 180 x(49)#49
     + 815 x(50)#50 + 792 x(51)#51 + 850 x(52)#52 + 87 x(53)#53 + 328 x(54)#54
     + 714 x(55)#55 + 519 x(56)#56 + 272 x(57)#57 + 616 x(58)#58 + 897 x(59)#59
     + 35 x(60)#60 + 490 x(61)#61 + 474 x(62)#62 + 383 x(63)#63 + 994 x(64)#64
     + 360 x(65)#65 + 41 x(66)#66 + 283 x(67)#67 + 59 x(68)#68 + 347 x(69)#69
     + 928 x(70)#70 + 932 x(71)#71 + 177 x(72)#72 + 278 x(73)#73 + 302 x(74)#74
     + 204 x(75)#75 + 598 x(76)#76 + 978 x(77)#77 + 93 x(78)#78 + 629 x(79)#79
     + 980 x(80)#80 + x(81)#81 + 246 x(82)#82 + 684 x(83)#83 + 275 x(84)#84
     + 131 x(85)#85 + 247 x(86)#86 + 311 x(87)#87 + 2 x(88)#88 + 770 x(89)#89
     + 192 x(90)#90 + 480 x(91)#91 + 902 x(92)#92 + 670 x(93)#93 + 840 x(94)#94
     + 150 x(95)#95 + 596 x(96)#96 + 39 x(97)#97 + 506 x(98)#98 + 176 x(99)#99
     + 686 x(100)#100 + 325 x(101)#101 + 527 x(102)#102 + 314 x(103)#103
     + 462 x(104)#104 + 409 x(105)#105 + 106 x(106)#106 + 43 x(107)#107
     + 742 x(108)#108 + 267 x(109)#109 + 110 x(110)#110 + 459 x(111)#111
     + 68 x(112)#112 + 920 x(113)#113 + 152 x(114)#114 + 544 x(115)#115
     + 342 x(116)#116 + 193 x(117)#117 + 540 x(118)#118 + 211 x(119)#119
     + 577 x(120)#120 + 324 x(121)#121 + 656 x(122)#122 + 772 x(123)#123
     + 305 x(124)#124 + 873 x(125)#125 + 738 x(126)#126 + 835 x(127)#127
     + 471 x(128)#128 + 580 x(129)#129 + 914 x(130)#130 + 697 x(131)#131
     + 678 x(132)#132 + 653 x(133)#133 + 639 x(134)#134 + 914 x(135)#135
     + 900 x(136)#136 + 777 x(137)#137 + 763 x(138)#138 + 547 x(139)#139
     + 617 x(140)#140 + 430 x(141)#141 + 286 x(142)#142 + 603 x(143)#143
     + 409 x(144)#144 + 969 x(145)#145 + 515 x(146)#146 + 955 x(147)#147
     + 34 x(148)#148 + 344 x(149)#149 + 517 x(150)#150 + 413 x(151)#151
     + 420 x(152)#152 + 607 x(153)#153 + 255 x(154)#154 + 223 x(155)#155
     + 442 x(156)#156 + 323 x(157)#157 + 334 x(158)#158 + 740 x(159)#159
     + 141 x(160)#160 + 871 x(161)#161 + 191 x(162)#162 + 342 x(163)#163
     + 403 x(164)#164 + 138 x(165)#165 + 327 x(166)#166 + 453 x(167)#167
     + 930 x(168)#168 + 829 x(169)#169 + 151 x(170)#170 + 230 x(171)#171
     + 495 x(172)#172 + 277 x(173)#173 + 996 x(174)#174 + 772 x(175)#175
     + 101 x(176)#176 + 197 x(177)#177 + 512 x(178)#178 + 95 x(179)#179
     + 566 x(180)#180 + 665 x(181)#181 + 370 x(182)#182 + 895 x(183)#183
     + 931 x(184)#184 + 74 x(185)#185 + 342 x(186)#186 + 479 x(187)#187
     + 659 x(188)#188 + 341 x(189)#189 + 444 x(190)#190 + 682 x(191)#191
     + 117 x(192)#192 + 658 x(193)#193 + 833 x(194)#194 + 198 x(195)#195
     + 766 x(196)#196 + 60 x(197)#197 + 144 x(198)#198 + 395 x(199)#199
     + 145 x(200)#200 + 797 x(201)#201 + 487 x(202)#202 + 498 x(203)#203
     + 953 x(204)#204 + 480 x(205)#205 + 729 x(206)#206 + 349 x(207)#207
     + 231 x(208)#208 + 436 x(209)#209 + 886 x(210)#210 + 963 x(211)#211
     + 532 x(212)#212 + 99 x(213)#213 + 405 x(214)#214 + 72 x(215)#215
     + 734 x(216)#216 + 38 x(217)#217 + 461 x(218)#218 + 941 x(219)#219
     + 835 x(220)#220 + 486 x(221)#221 + 766 x(222)#222 + 685 x(223)#223
     + 295 x(224)#224 + 394 x(225)#225 + 298 x(226)#226 + 715 x(227)#227
     + 741 x(228)#228 + 332 x(229)#229 + 450 x(230)#230 + 412 x(231)#231
     + 895 x(232)#232 + 466 x(233)#233 + 714 x(234)#234 + 352 x(235)#235
     + 174 x(236)#236 + 414 x(237)#237 + 389 x(238)#238 + 768 x(239)#239
     + 344 x(240)#240 + 604 x(241)#241 + 111 x(242)#242 + 918 x(243)#243
     + 596 x(244)#244 + 759 x(245)#245 + 340 x(246)#246 + 639 x(247)#247
     + 606 x(248)#248 + 754 x(249)#249 <= 59944
Bounds
 0 <= x(0)#0 <= 1
 0 <= x(1)#1 <= 1
 0 <= x(2)#2 <= 1
 0 <= x(3)#3 <= 1
 0 <= x(4)#4 <= 1
 0 <= x(5)#5 <= 1
 0 <= x(6)#6 <= 1
 0 <= x(7)#7 <= 1
 0 <= x(8)#8 <= 1
 0 <= x(9)#9 <= 1
 0 <= x(10)#10 <= 1
 0 <= x(11)#11 <= 1
 0 <= x(12)#12 <= 1
 0 <= x(13)#13 <= 1
 0 <= x(14)#14 <= 1
 0 <= x(15)#15 <= 1
 0 <= x(16)#16 <= 1
 0 <= x(17)#17 <= 1
 0 <= x(18)#18 <= 1
 0 <= x(19)#19 <= 1
 0 <= x(20)#20 <= 1
 0 <= x(21)#21 <= 1
 0 <= x(22)#22 <= 1
 0 <= x(23)#23 <= 1
 0 <= x(24)#24 <= 1
 0 <= x(25)#25 <= 1
 0 <= x(26)#26 <= 1
 0 <= x(27)#27 <= 1
 0 <= x(28)#28 <= 1
 0 <= x(29)#29 <= 1
 0 <= x(30)#30 <= 1
 0 <= x(31)#31 <= 1
 0 <= x(32)#32 <= 1
 0 <= x(33)#33 <= 1
 0 <= x(34)#34 <= 1
 0 <= x(35)#35 <= 1
 0 <= x(36)#36 <= 1
 0 <= x(37)#37 <= 1
 0 <= x(38)#38 <= 1
 0 <= x(39)#39 <= 1
 0 <= x(40)#40 <= 1
 0 <= x(41)#41 <= 1
 0 <= x(42)#42 <= 1
 0 <= x(43)#43 <= 1
 0 <= x(44)#44 <= 1
 0 <= x(45)#45 <= 1
 0 <= x(46)#46 <= 1
 0 <= x(47)#47 <= 1
 0 <= x(48)#48 <= 1
 0 <= x(49)#49 <= 1
 0 <= x(50)#50 <= 1
 0 <= x(51)#51 <= 1
 0 <= x(52)#52 <= 1
 0 <= x(53)#53 <= 1
 0 <= x(54)#54 <= 1
 0 <= x(55)#55 <= 1
 0 <= x(56)#56 <= 1
 0 <= x(57)#57 <= 1
 0 <= x(58)#58 <= 1
 0 <= x(59)#59 <= 1
 0 <= x(60)#60 <= 1
 0 <= x(61)#61 <= 1
 0 <= x(62)#62 <= 1
 0 <= x(63)#63 <= 1
 0 <= x(64)#64 <= 1
 0 <= x(65)#65 <= 1
 0 <= x(66)#66 <= 1
 0 <= x(67)#67 <= 1
 0 <= x(68)#68 <= 1
 0 <= x(69)#69 <= 1
 0 <= x(70)#70 <= 1
 0 <= x(71)#71 <= 1
 0 <= x(72)#72 <= 1
 0 <= x(73)#73 <= 1
 0 <= x(74)#74 <= 1
 0 <= x(75)#75 <= 1
 0 <= x(76)#76 <= 1
 0 <= x(77)#77 <= 1
 0 <= x(78)#78 <= 1
 0 <= x(79)#79 <= 1
 0 <= x(80)#80 <= 1
 0 <= x(81)#81 <= 1
 0 <= x(82)#82 <= 1
 0 <= x(83)#83 <= 1
 0 <= x(84)#84 <= 1
 0 <= x(85)#85 <= 1
 0 <= x(86)#86 <= 1
 0 <= x(87)#87 <= 1
 0 <= x(88)#88 <= 1
 0 <= x(89)#89 <= 1
 0 <= x(90)#90 <= 1
 0 <= x(91)#91 <= 1
 0 <= x(92)#92 <= 1
 0 <= x(93)#93 <= 1
 0 <= x(94)#94 <= 1
 0 <= x(95)#95 <= 1
 0 <= x(96)#96 <= 1
 0 <= x(97)#97 <= 1
 0 <= x(98)#98 <= 1
 0 <= x(99)#99 <= 1
 0 <= x(100)#100 <= 1
 0 <= x(101)#101 <= 1
 0 <= x(102)#102 <= 1
 0 <= x(103)#103 <= 1
 0 <= x(104)#104 <= 1
 0 <= x(105)#105 <= 1
 0 <= x(106)#106 <= 1
 0 <= x(107)#107 <= 1
 0 <= x(108)#108 <= 1
 0 <= x(109)#109 <= 1
 0 <= x(110)#110 <= 1
 0 <= x(111)#111 <= 1
 0 <= x(112)#112 <= 1
 0 <= x(113)#113 <= 1
 0 <= x(114)#114 <= 1
 0 <= x(115)#115 <= 1
 0 <= x(116)#116 <= 1
 0 <= x(117)#117 <= 1
 0 <= x(118)#118 <= 1
 0 <= x(119)#119 <= 1
 0 <= x(120)#120 <= 1
 0 <= x(121)#121 <= 1
 0 <= x(122)#122 <= 1
 0 <= x(123)#123 <= 1
 0 <= x(124)#124 <= 1
 0 <= x(125)#125 <= 1
 0 <= x(126)#126 <= 1
 0 <= x(127)#127 <= 1
 0 <= x(128)#128 <= 1
 0 <= x(129)#129 <= 1
 0 <= x(130)#130 <= 1
 0 <= x(131)#131 <= 1
 0 <= x(132)#132 <= 1
 0 <= x(133)#133 <= 1
 0 <= x(134)#134 <= 1
 0 <= x(135)#135 <= 1
 0 <= x(136)#136 <= 1
 0 <= x(137)#137 <= 1
 0 <= x(138)#138 <= 1
 0 <= x(139)#139 <= 1
 0 <= x(140)#140 <= 1
 0 <= x(141)#141 <= 1
 0 <= x(142)#142 <= 1
 0 <= x(143)#143 <= 1
 0 <= x(144)#144 <= 1
 0 <= x(145)#145 <= 1
 0 <= x(146)#146 <= 1
 0 <= x(147)#147 <= 1
 0 <= x(148)#148 <= 1
 0 <= x(149)#149 <= 1
 0 <= x(150)#150 <= 1
 0 <= x(151)#151 <= 1
 0 <= x(152)#152 <= 1
 0 <= x(153)#153 <= 1
 0 <= x(154)#154 <= 1
 0 <= x(155)#155 <= 1
 0 <= x(156)#156 <= 1
 0 <= x(157)#157 <= 1
 0 <= x(158)#158 <= 1
 0 <= x(159)#159 <= 1
 0 <= x(160)#160 <= 1
 0 <= x(161)#161 <= 1
 0 <= x(162)#162 <= 1
 0 <= x(163)#163 <= 1
 0 <= x(164)#164 <= 1
 0 <= x(165)#165 <= 1
 0 <= x(166)#166 <= 1
 0 <= x(167)#167 <= 1
 0 <= x(168)#168 <= 1
 0 <= x(169)#169 <= 1
 0 <= x(170)#170 <= 1
 0 <= x(171)#171 <= 1
 0 <= x(172)#172 <= 1
 0 <= x(173)#173 <= 1
 0 <= x(174)#174 <= 1
 0 <= x(175)#175 <= 1
 0 <= x(176)#176 <= 1
 0 <= x(177)#177 <= 1
 0 <= x(178)#178 <= 1
 0 <= x(179)#179 <= 1
 0 <= x(180)#180 <= 1
 0 <= x(181)#181 <= 1
 0 <= x(182)#182 <= 1
 0 <= x(183)#183 <= 1
 0 <= x(184)#184 <= 1
 0 <= x(185)#185 <= 1
 0 <= x(186)#186 <= 1
 0 <= x(187)#187 <= 1
 0 <= x(188)#188 <= 1
 0 <= x(189)#189 <= 1
 0 <= x(190)#190 <= 1
 0 <= x(191)#191 <= 1
 0 <= x(192)#192 <= 1
 0 <= x(193)#193 <= 1
 0 <= x(194)#194 <= 1
 0 <= x(195)#195 <= 1
 0 <= x(196)#196 <= 1
 0 <= x(197)#197 <= 1
 0 <= x(198)#198 <= 1
 0 <= x(199)#199 <= 1
 0 <= x(200)#200 <= 1
 0 <= x(201)#201 <= 1
 0 <= x(202)#202 <= 1
 0 <= x(203)#203 <= 1
 0 <= x(204)#204 <= 1
 0 <= x(205)#205 <= 1
 0 <= x(206)#206 <= 1
 0 <= x(207)#207 <= 1
 0 <= x(208)#208 <= 1
 0 <= x(209)#209 <= 1
 0 <= x(210)#210 <= 1
 0 <= x(211)#211 <= 1
 0 <= x(212)#212 <= 1
 0 <= x(213)#213 <= 1
 0 <= x(214)#214 <= 1
 0 <= x(215)#215 <= 1
 0 <= x(216)#216 <= 1
 0 <= x(217)#217 <= 1
 0 <= x(218)#218 <= 1
 0 <= x(219)#219 <= 1
 0 <= x(220)#220 <= 1
 0 <= x(221)#221 <= 1
 0 <= x(222)#222 <= 1
 0 <= x(223)#223 <= 1
 0 <= x(224)#224 <= 1
 0 <= x(225)#225 <= 1
 0 <= x(226)#226 <= 1
 0 <= x(227)#227 <= 1
 0 <= x(228)#228 <= 1
 0 <= x(229)#229 <= 1
 0 <= x(230)#230 <= 1
 0 <= x(231)#231 <= 1
 0 <= x(232)#232 <= 1
 0 <= x(233)#233 <= 1
 0 <= x(234)#234 <= 1
 0 <= x(235)#235 <= 1
 0 <= x(236)#236 <= 1
 0 <= x(237)#237 <= 1
 0 <= x(238)#238 <= 1
 0 <= x(239)#239 <= 1
 0 <= x(240)#240 <= 1
 0 <= x(241)#241 <= 1
 0 <= x(242)#242 <= 1
 0 <= x(243)#243 <= 1
 0 <= x(244)#244 <= 1
 0 <= x(245)#245 <= 1
 0 <= x(246)#246 <= 1
 0 <= x(247)#247 <= 1
 0 <= x(248)#248 <= 1
 0 <= x(249)#249 <= 1
Generals
 x(0)#0  x(1)#1  x(2)#2  x(3)#3  x(4)#4  x(5)#5  x(6)#6  x(7)#7  x(8)#8 
 x(9)#9  x(10)#10  x(11)#11  x(12)#12  x(13)#13  x(14)#14  x(15)#15  x(16)#16 
 x(17)#17  x(18)#18  x(19)#19  x(20)#20  x(21)#21  x(22)#22  x(23)#23 
 x(24)#24  x(25)#25  x(26)#26  x(27)#27  x(28)#28  x(29)#29  x(30)#30 
 x(31)#31  x(32)#32  x(33)#33  x(34)#34  x(35)#35  x(36)#36  x(37)#37 
 x(38)#38  x(39)#39  x(40)#40  x(41)#41  x(42)#42  x(43)#43  x(44)#44 
 x(45)#45  x(46)#46  x(47)#47  x(48)#48  x(49)#49  x(50)#50  x(51)#51 
 x(52)#52  x(53)#53  x(54)#54  x(55)#55  x(56)#56  x(57)#57  x(58)#58 
 x(59)#59  x(60)#60  x(61)#61  x(62)#62  x(63)#63  x(64)#64  x(65)#65 
 x(66)#66  x(67)#67  x(68)#68  x(69)#69  x(70)#70  x(71)#71  x(72)#72 
 x(73)#73  x(74)#74  x(75)#75  x(76)#76  x(77)#77  x(78)#78  x(79)#79 
 x(80)#80  x(81)#81  x(82)#82  x(83)#83  x(84)#84  x(85)#85  x(86)#86 
 x(87)#87  x(88)#88  x(89)#89  x(90)#90  x(91)#91  x(92)#92  x(93)#93 
 x(94)#94  x(95)#95  x(96)#96  x(97)#97  x(98)#98  x(99)#99  x(100)#100 
 x(101)#101  x(102)#102  x(103)#103  x(104)#104  x(105)#105  x(106)#106 
 x(107)#107  x(108)#108  x(109)#109  x(110)#110  x(111)#111  x(112)#112 
 x(113)#113  x(114)#114  x(115)#115  x(116)#116  x(117)#117  x(118)#118 
 x(119)#119  x(120)#120  x(121)#121  x(122)#122  x(123)#123  x(124)#124 
 x(125)#125  x(126)#126  x(127)#127  x(128)#128  x(129)#129  x(130)#130 
 x(131)#131  x(132)#132  x(133)#133  x(134)#134  x(135)#135  x(136)#136 
 x(137)#137  x(138)#138  x(139)#139  x(140)#140  x(141)#141  x(142)#142 
 x(143)#143  x(144)#144  x(145)#145  x(146)#146  x(147)#147  x(148)#148 
 x(149)#149  x(150)#150  x(151)#151  x(152)#152  x(153)#153  x(154)#154 
 x(155)#155  x(156)#156  x(157)#157  x(158)#158  x(159)#159  x(160)#160 
 x(161)#161  x(162)#162  x(163)#163  x(164)#164  x(165)#165  x(166)#166 
 x(167)#167  x(168)#168  x(169)#169  x(170)#170  x(171)#171  x(172)#172 
 x(173)#173  x(174)#174  x(175)#175  x(176)#176  x(177)#177  x(178)#178 
 x(179)#179  x(180)#180  x(181)#181  x(182)#182  x(183)#183  x(184)#184 
 x(185)#185  x(186)#186  x(187)#187  x(188)#188  x(189)#189  x(190)#190 
 x(191)#191  x(192)#192  x(193)#193  x(194)#194  x(195)#195  x(196)#196 
 x(197)#197  x(198)#198  x(199)#199  x(200)#200  x(201)#201  x(202)#202 
 x(203)#203  x(204)#204  x(205)#205  x(206)#206  x(207)#207  x(208)#208 
 x(209)#209  x(210)#210  x(211)#211  x(212)#212  x(213)#213  x(214)#214 
 x(215)#215  x(216)#216  x(217)#217  x(218)#218  x(219)#219  x(220)#220 
 x(221)#221  x(222)#222  x(223)#223  x(224)#224  x(225)#225  x(226)#226 
 x(227)#227  x(228)#228  x(229)#229  x(230)#230  x(231)#231  x(232)#232 
 x(233)#233  x(234)#234  x(235)#235  x(236)#236  x(237)#237  x(238)#238 
 x(239)#239  x(240)#240  x(241)#241  x(242)#242  x(243)#243  x(244)#244 
 x(245)#245  x(246)#246  x(247)#247  x(248)#248  x(249)#249 
End
